c @top --> 62
c p0@v2 --> 61
c p3@v2 --> 28
c p10 --> 1
c p4@v6 --> 24
c p5@v0 --> 37
c p4@v5 --> 23
c p3@v0 --> 26
c p5@v7 --> 44
c p4@v7 --> 25
c p6@v1 --> 33
c p9@v4 --> 53
c p4@v0 --> 18
c p11 --> 17
c p7@v3 --> 15
c p9@v0 --> 49
c p8@v2 --> 4
c p4@v2 --> 20
c p8@v0 --> 2
c p9@v5 --> 54
c p8@v4 --> 6
c p8@v1 --> 3
c p4@v1 --> 19
c p1@v0 --> 45
c p4@v4 --> 22
c p6@v2 --> 34
c p8@v3 --> 5
c p7@v2 --> 14
c p8@v5 --> 7
c p5@v2 --> 39
c p8@v7 --> 9
c p9@v7 --> 56
c p8@v6 --> 8
c p5@v5 --> 42
c p3@v1 --> 27
c p7@v0 --> 12
c p8@v8 --> 10
c p0@v1 --> 60
c p2@v2 --> 31
c p2@v0 --> 29
c p7@v4 --> 16
c p7@v1 --> 13
c p6@v0 --> 32
c p5@v6 --> 43
c p6@v3 --> 35
c p6@v4 --> 36
c p5@v1 --> 38
c p5@v3 --> 40
c p5@v4 --> 41
c p1@v1 --> 46
c p1@v2 --> 47
c p12 --> 48
c p9@v1 --> 50
c p9@v2 --> 51
c p2@v1 --> 30
c p8@v9 --> 11
c p9@v3 --> 52
c p9@v6 --> 55
c p9@v8 --> 57
c p9@v9 --> 58
c p4@v3 --> 21
c p0@v0 --> 59
p cnf 62 577
-29 -49 -3 0
-34 -45 -12 0
-11 -56 -31 0
-11 -55 -31 0
-23 -61 -44 0
-29 -49 -11 0
-29 -11 -53 0
-57 -3 -30 0
-25 -38 -61 0
-25 -38 -59 0
-29 -57 -11 0
-10 -29 -55 0
-18 -60 -41 0
-55 -30 -7 0
-37 -25 -59 0
-57 -3 -31 0
-42 -60 -22 0
-60 -21 -44 0
-13 -35 -47 0
-29 -11 -54 0
-2 -54 -30 0
-2 -54 -31 0
-25 -39 -59 0
-6 -29 -51 0
-25 -39 -61 0
-10 -29 -56 0
-34 -47 -12 0
-33 -16 -47 0
-13 -36 -47 0
-4 -57 -30 0
-46 -15 -35 0
-13 -36 -45 0
-55 -31 -7 0
-46 -15 -34 0
-51 -3 -31 0
-42 -61 -22 0
-37 -19 -59 0
-51 -3 -30 0
-10 -29 -57 0
-19 -61 -43 0
-29 -11 -50 0
-4 -55 -31 0
-4 -55 -30 0
-23 -60 -44 0
-8 -58 -31 0
-8 -58 -30 0
-25 -37 -61 0
-4 -57 -31 0
-19 -60 -43 0
-9 -52 -31 0
-2 -58 -31 0
-2 -58 -30 0
-6 -29 -50 0
-20 -61 -44 0
-29 -11 -56 0
-9 -58 -30 0
-9 -58 -31 0
-6 -50 -31 0
-58 -3 -31 0
-58 -3 -30 0
-24 -41 -59 0
-24 -41 -61 0
-6 -29 -49 0
-40 -60 -21 0
-20 -60 -44 0
-33 -14 -46 0
-33 -14 -47 0
-13 -34 -45 0
-13 -34 -47 0
-18 -61 -43 0
-55 -30 -5 0
-3 -50 -30 0
-14 -35 -47 0
-6 -53 -30 0
-8 -55 -30 0
-8 -29 -55 0
-20 -61 -43 0
-18 -60 -43 0
-55 -31 -5 0
-38 -59 -22 0
-29 -49 -5 0
-8 -29 -54 0
-25 -40 -59 0
-25 -40 -61 0
-4 -56 -31 0
-33 -13 -46 0
-33 -13 -45 0
-4 -56 -30 0
-29 -52 -7 0
-20 -60 -43 0
-49 -11 -31 0
-4 -54 -31 0
-18 -39 -61 0
-18 -39 -60 0
-40 -61 -22 0
-58 -30 -5 0
-4 -54 -30 0
-2 -50 -31 0
-2 -50 -30 0
-46 -36 -16 0
-6 -51 -31 0
-14 -45 -35 0
-8 -29 -53 0
-9 -29 -53 0
-57 -11 -31 0
-10 -58 -31 0
-6 -52 -31 0
-10 -58 -30 0
-39 -61 -22 0
-19 -60 -41 0
-20 -60 -41 0
-60 -41 -22 0
-29 -50 -3 0
-16 -35 -47 0
-57 -30 -7 0
-61 -22 -44 0
-9 -29 -51 0
-18 -41 -61 0
-4 -53 -31 0
-29 -53 -7 0
-4 -53 -30 0
-9 -29 -54 0
-19 -41 -61 0
-4 -49 -31 0
-29 -54 -7 0
-40 -59 -22 0
-18 -40 -61 0
-18 -40 -60 0
-19 -40 -60 0
-14 -34 -45 0
-8 -52 -31 0
-29 -52 -5 0
-57 -30 -5 0
-19 -40 -61 0
-42 -18 -60 0
-56 -30 -7 0
-9 -29 -52 0
-10 -50 -31 0
-8 -29 -52 0
-39 -59 -22 0
-29 -49 -7 0
-42 -18 -61 0
-36 -15 -45 0
-36 -15 -47 0
-52 -31 -7 0
-56 -3 -30 0
-6 -54 -31 0
-53 -3 -30 0
-6 -54 -30 0
-53 -3 -31 0
-56 -3 -31 0
-10 -52 -31 0
-10 -51 -31 0
-32 -46 -16 0
-57 -31 -5 0
-56 -31 -7 0
-32 -16 -47 0
-8 -29 -51 0
-6 -29 -53 0
-61 -21 -44 0
-9 -29 -56 0
-23 -60 -43 0
-60 -21 -43 0
-42 -23 -59 0
-42 -23 -60 0
-60 -22 -44 0
-11 -50 -31 0
-29 -50 -7 0
-16 -34 -47 0
-42 -19 -61 0
-10 -49 -31 0
-42 -19 -60 0
-29 -58 -11 0
-14 -32 -47 0
-14 -32 -46 0
-8 -51 -31 0
-29 -50 -5 0
-6 -29 -52 0
-29 -2 -49 0
-4 -50 -31 0
-8 -50 -31 0
-57 -31 -7 0
-8 -57 -31 0
-8 -56 -30 0
-8 -57 -30 0
-8 -56 -31 0
-41 -59 -22 0
-52 -30 -5 0
-9 -29 -55 0
-23 -61 -43 0
-4 -29 -50 0
-18 -38 -60 0
-18 -38 -61 0
-52 -3 -31 0
-52 -3 -30 0
-4 -29 -49 0
-20 -38 -61 0
-32 -46 -15 0
-10 -55 -31 0
-2 -49 -30 0
-20 -38 -59 0
-18 -37 -60 0
-18 -37 -59 0
-53 -31 -7 0
-20 -37 -61 0
-24 -40 -61 0
-24 -40 -59 0
-10 -57 -30 0
-10 -29 -50 0
-23 -40 -59 0
-20 -37 -59 0
-23 -40 -61 0
-54 -30 -7 0
-18 -60 -44 0
-25 -60 -44 0
-24 -61 -44 0
-54 -30 -5 0
-9 -49 -31 0
-33 -46 -16 0
-32 -45 -12 0
-19 -60 -44 0
-6 -58 -31 0
-6 -58 -30 0
-61 -21 -43 0
-2 -57 -31 0
-18 -61 -44 0
-25 -59 -44 0
-2 -57 -30 0
-54 -31 -5 0
-24 -60 -44 0
-32 -46 -12 0
-8 -49 -31 0
-19 -61 -44 0
-24 -39 -61 0
-24 -39 -59 0
-37 -24 -61 0
-37 -24 -59 0
-6 -56 -30 0
-25 -41 -59 0
-6 -56 -31 0
-25 -41 -61 0
-9 -29 -49 0
-14 -46 -34 0
-26 17 -1 0
-26 17 1 0
-42 -25 -59 0
-54 -3 -31 0
-54 -3 -30 0
-42 -25 -61 0
-37 -23 -59 0
-38 -23 -61 0
-58 -31 -5 0
-19 -38 -59 0
-19 -38 -60 0
-38 -23 -59 0
-37 -23 -61 0
-56 -31 -5 0
-20 -42 -60 0
-29 -51 -5 0
-39 -23 -59 0
-19 -37 -61 0
-20 -40 -60 0
-20 -40 -61 0
-36 -47 -12 0
-20 -42 -61 0
-9 -29 -50 0
-24 -60 -43 0
-10 -56 -31 0
-9 -57 -30 0
-9 -57 -31 0
-20 -41 -61 0
-10 -54 -31 0
-6 -57 -31 0
-37 -61 -21 0
-6 -57 -30 0
-56 -30 -5 0
-10 -29 -49 0
-10 -53 -31 0
-58 -30 -7 0
-24 -59 -43 0
-38 -24 -59 0
-4 -52 -30 0
-4 -52 -31 0
-15 -45 -35 0
-20 -39 -60 0
-23 -39 -61 0
-20 -39 -59 0
-36 -45 -12 0
-6 -55 -30 0
-58 -31 -7 0
-6 -55 -31 0
-17 -47 -31 -1 0
-19 -39 -61 0
-19 -39 -60 0
-39 -59 -21 0
-17 -27 1 0
-17 -27 -1 0
-33 -47 -12 0
-29 -51 -7 0
-10 -29 -52 0
-49 -3 -31 0
-42 -60 -21 0
-33 -46 -15 0
-37 -59 -21 0
-17 -28 1 0
-38 -61 -22 0
-61 -22 -43 0
-9 -54 -31 0
-51 -11 -31 0
-4 -58 -31 0
-10 -29 -51 0
-4 -58 -30 0
-60 -22 -43 0
-37 -61 -22 0
17 -28 -1 0
-27 17 1 0
-29 -55 -11 0
-50 -31 -7 0
-52 -2 -30 0
-52 -2 -31 0
-29 -51 -11 0
-2 -53 -30 0
-2 -53 -31 0
-52 -11 -31 0
-32 -15 -47 0
-55 -3 -31 0
-55 -3 -30 0
-33 -15 -47 0
-13 -45 -35 0
-4 -51 -30 0
-60 -41 -21 0
-2 -55 -31 0
-15 -34 -47 0
-2 -55 -30 0
-51 -31 -7 0
-17 -26 -1 0
-16 -36 -45 0
-11 -58 -30 0
-14 -36 -47 0
-37 -59 -22 0
-8 -54 -31 0
-14 -36 -45 0
-40 -59 -21 0
-45 -35 -12 0
-9 -51 -31 0
-6 -49 -31 0
-33 -45 -12 0
-8 -53 -31 0
-38 -59 -21 0
-42 -24 -61 0
-9 -50 -31 0
-42 -24 -59 0
-8 -29 -50 0
-25 -61 -43 0
-4 -29 -51 0
-47 17 -31 1 0
-24 -38 -61 0
-32 -13 -46 0
-50 -31 -5 0
-32 -13 -47 0
-51 -2 -31 0
-51 -2 -30 0
-10 -29 -54 0
-35 -47 -12 0
-11 -54 -31 0
-11 -53 -31 0
-49 -31 -7 0
-53 -30 -5 0
-9 -53 -31 0
-41 -61 -21 0
-46 -16 -34 0
-9 -56 -30 0
-10 -29 -53 0
-25 -59 -43 0
-38 -61 -21 0
-39 -61 -21 0
-9 -55 -31 0
-2 -56 -31 0
-53 -31 -5 0
-23 -41 -61 0
-23 -41 -59 0
-2 -56 -30 0
-51 -31 -5 0
-49 -31 -5 0
-29 -52 -11 0
-42 -61 -21 0
-8 -29 -49 0
-46 -16 -35 0
2 3 4 5 6 7 8 9 10 11 0
-2 -3 0
-2 -4 0
-2 -5 0
-2 -6 0
-2 -7 0
-2 -8 0
-2 -9 0
-2 -10 0
-2 -11 0
-3 -4 0
-3 -5 0
-3 -6 0
-3 -7 0
-3 -8 0
-3 -9 0
-3 -10 0
-3 -11 0
-4 -5 0
-4 -6 0
-4 -7 0
-4 -8 0
-4 -9 0
-4 -10 0
-4 -11 0
-5 -6 0
-5 -7 0
-5 -8 0
-5 -9 0
-5 -10 0
-5 -11 0
-6 -7 0
-6 -8 0
-6 -9 0
-6 -10 0
-6 -11 0
-7 -8 0
-7 -9 0
-7 -10 0
-7 -11 0
-8 -9 0
-8 -10 0
-8 -11 0
-9 -10 0
-9 -11 0
-10 -11 0
12 13 14 15 16 0
-12 -13 0
-12 -14 0
-12 -15 0
-12 -16 0
-13 -14 0
-13 -15 0
-13 -16 0
-14 -15 0
-14 -16 0
-15 -16 0
18 19 20 21 22 23 24 25 0
-18 -19 0
-18 -20 0
-18 -21 0
-18 -22 0
-18 -23 0
-18 -24 0
-18 -25 0
-19 -20 0
-19 -21 0
-19 -22 0
-19 -23 0
-19 -24 0
-19 -25 0
-20 -21 0
-20 -22 0
-20 -23 0
-20 -24 0
-20 -25 0
-21 -22 0
-21 -23 0
-21 -24 0
-21 -25 0
-22 -23 0
-22 -24 0
-22 -25 0
-23 -24 0
-23 -25 0
-24 -25 0
26 27 28 0
-26 -27 0
-26 -28 0
-27 -28 0
29 30 31 0
-29 -30 0
-29 -31 0
-30 -31 0
32 33 34 35 36 0
-32 -33 0
-32 -34 0
-32 -35 0
-32 -36 0
-33 -34 0
-33 -35 0
-33 -36 0
-34 -35 0
-34 -36 0
-35 -36 0
37 38 39 40 41 42 43 44 0
-37 -38 0
-37 -39 0
-37 -40 0
-37 -41 0
-37 -42 0
-37 -43 0
-37 -44 0
-38 -39 0
-38 -40 0
-38 -41 0
-38 -42 0
-38 -43 0
-38 -44 0
-39 -40 0
-39 -41 0
-39 -42 0
-39 -43 0
-39 -44 0
-40 -41 0
-40 -42 0
-40 -43 0
-40 -44 0
-41 -42 0
-41 -43 0
-41 -44 0
-42 -43 0
-42 -44 0
-43 -44 0
45 46 47 0
-45 -46 0
-45 -47 0
-46 -47 0
49 50 51 52 53 54 55 56 57 58 0
-49 -50 0
-49 -51 0
-49 -52 0
-49 -53 0
-49 -54 0
-49 -55 0
-49 -56 0
-49 -57 0
-49 -58 0
-50 -51 0
-50 -52 0
-50 -53 0
-50 -54 0
-50 -55 0
-50 -56 0
-50 -57 0
-50 -58 0
-51 -52 0
-51 -53 0
-51 -54 0
-51 -55 0
-51 -56 0
-51 -57 0
-51 -58 0
-52 -53 0
-52 -54 0
-52 -55 0
-52 -56 0
-52 -57 0
-52 -58 0
-53 -54 0
-53 -55 0
-53 -56 0
-53 -57 0
-53 -58 0
-54 -55 0
-54 -56 0
-54 -57 0
-54 -58 0
-55 -56 0
-55 -57 0
-55 -58 0
-56 -57 0
-56 -58 0
-57 -58 0
59 60 61 0
-59 -60 0
-59 -61 0
-60 -61 0
62 -62 0
